WARNING: for repeatability, setting FPU to use double precision
============================[ Problem Statistics ]=============================
|                                                                             |
|  Number of variables:           100                                         |
|  Number of clauses:             449                                         |
|  Parse time:                   0.00 s                                       |
|  Eliminated clauses:           0.00 Mb                                      |
|  Simplification time:          0.00 s                                       |
|                                                                             |
============================[ Search Statistics ]==============================
| Conflicts |          ORIGINAL         |          LEARNT          | Progress |
|           |    Vars  Clauses Literals |    Limit  Clauses Lit/Cl |          |
===============================================================================
|       100 |      98      447     1349 |      163      100      8 |  0.010 % |
===============================================================================
restarts              : 3
conflicts             : 230            (70531 /sec)
decisions             : 297            (0.00 % random) (91076 /sec)
propagations          : 5250           (1609936 /sec)
conflict literals     : 1599           (17.06 % deleted)
Memory used           : 13.00 MB
CPU time              : 0.003261 s

SATISFIABLE
